words_train/words_505_SAT.qaiger
aag 99 24 0 1 75
34
18
4
40
8
28
30
26
2
6
32
20
36
46
22
44
24
38
42
16
48
12
10
14
198
50 48 33
52 49 32
54 53 51
56 55 16
58 54 17
60 59 57
62 20 18
64 62 22
66 64 24
68 66 26
70 68 28
72 70 30
74 47 15
76 46 14
78 77 75
80 79 72
82 81 60
84 67 27
86 85 69
88 43 11
90 42 10
92 91 89
94 92 87
96 93 86
98 97 95
100 98 83
102 78 73
104 71 31
106 105 61
108 106 103
110 36 21
112 37 20
114 113 111
116 115 4
118 114 5
120 119 117
122 35 3
124 34 2
126 125 123
128 126 18
130 129 120
132 127 19
134 133 121
136 135 131
138 136 109
140 138 100
142 63 23
144 143 65
146 38 7
148 39 6
150 149 147
152 150 144
154 151 145
156 155 153
158 65 25
160 159 67
162 41 9
164 40 8
166 165 163
168 166 160
170 167 161
172 171 169
174 173 156
176 104 78
178 69 29
180 179 71
182 44 13
184 45 12
186 185 183
188 186 181
190 187 180
192 191 189
194 193 177
196 194 174
198 196 140
i0 2 y[0]
i1 2 z[0]
i2 1 x[1]
i3 2 y[3]
i4 1 x[3]
i5 2 z[5]
i6 2 z[6]
i7 2 z[4]
i8 1 x[0]
i9 1 x[2]
i10 2 z[7]
i11 2 z[1]
i12 2 y[1]
i13 2 y[6]
i14 2 z[2]
i15 2 y[5]
i16 2 z[3]
i17 2 y[2]
i18 2 y[4]
i19 1 x[7]
i20 2 y[7]
i21 1 x[5]
i22 1 x[4]
i23 1 x[6]
o0 bool[0]
c
simplified
  ==
    1 x
    xor
      xor
        add
          2 z
          1
        2 y
      1
