words_train/words_505_SAT.qaiger.qdimacs
p cnf 99 226
a 1 2 3 4 5 6 7 8 0
e 9 10 11 12 13 14 15 16 17 18 19 20 21 22 23 24 25 26 27 28 29 30 31 32 33 34 35 36 37 38 39 40 41 42 43 44 45 46 47 48 49 50 51 52 53 54 55 56 57 58 59 60 61 62 63 64 65 66 67 68 69 70 71 72 73 74 75 76 77 78 79 80 81 82 83 84 85 86 87 88 89 90 91 92 93 94 95 96 97 98 99 0
-24 16 25 0
24 -25 0
-16 -25 0
24 -16 26 0
-24 -26 0
16 -26 0
26 25 27 0
-26 -27 0
-25 -27 0
27 -8 28 0
-27 -28 0
8 -28 0
-27 8 29 0
27 -29 0
-8 -29 0
29 28 30 0
-29 -30 0
-28 -30 0
-10 -9 31 0
10 -31 0
9 -31 0
-31 -11 32 0
31 -32 0
11 -32 0
-32 -12 33 0
32 -33 0
12 -33 0
-33 -13 34 0
33 -34 0
13 -34 0
-34 -14 35 0
34 -35 0
14 -35 0
-35 -15 36 0
35 -36 0
15 -36 0
23 7 37 0
-23 -37 0
-7 -37 0
-23 -7 38 0
23 -38 0
7 -38 0
38 37 39 0
-38 -39 0
-37 -39 0
39 -36 40 0
-39 -40 0
36 -40 0
40 -30 41 0
-40 -41 0
30 -41 0
33 13 42 0
-33 -42 0
-13 -42 0
42 34 43 0
-42 -43 0
-34 -43 0
21 5 44 0
-21 -44 0
-5 -44 0
-21 -5 45 0
21 -45 0
5 -45 0
45 44 46 0
-45 -46 0
-44 -46 0
-46 43 47 0
46 -47 0
-43 -47 0
46 -43 48 0
-46 -48 0
43 -48 0
48 47 49 0
-48 -49 0
-47 -49 0
-49 41 50 0
49 -50 0
-41 -50 0
-39 36 51 0
39 -51 0
-36 -51 0
35 15 52 0
-35 -52 0
-15 -52 0
52 30 53 0
-52 -53 0
-30 -53 0
-53 51 54 0
53 -54 0
-51 -54 0
-18 10 55 0
18 -55 0
-10 -55 0
18 -10 56 0
-18 -56 0
10 -56 0
56 55 57 0
-56 -57 0
-55 -57 0
57 -2 58 0
-57 -58 0
2 -58 0
-57 2 59 0
57 -59 0
-2 -59 0
59 58 60 0
-59 -60 0
-58 -60 0
17 1 61 0
-17 -61 0
-1 -61 0
-17 -1 62 0
17 -62 0
1 -62 0
62 61 63 0
-62 -63 0
-61 -63 0
-63 -9 64 0
63 -64 0
9 -64 0
64 -60 65 0
-64 -65 0
60 -65 0
63 9 66 0
-63 -66 0
-9 -66 0
66 60 67 0
-66 -67 0
-60 -67 0
67 65 68 0
-67 -68 0
-65 -68 0
-68 54 69 0
68 -69 0
-54 -69 0
-69 -50 70 0
69 -70 0
50 -70 0
31 11 71 0
-31 -71 0
-11 -71 0
71 32 72 0
-71 -72 0
-32 -72 0
-19 3 73 0
19 -73 0
-3 -73 0
19 -3 74 0
-19 -74 0
3 -74 0
74 73 75 0
-74 -75 0
-73 -75 0
-75 -72 76 0
75 -76 0
72 -76 0
75 72 77 0
-75 -77 0
-72 -77 0
77 76 78 0
-77 -78 0
-76 -78 0
32 12 79 0
-32 -79 0
-12 -79 0
79 33 80 0
-79 -80 0
-33 -80 0
20 4 81 0
-20 -81 0
-4 -81 0
-20 -4 82 0
20 -82 0
4 -82 0
82 81 83 0
-82 -83 0
-81 -83 0
-83 -80 84 0
83 -84 0
80 -84 0
83 80 85 0
-83 -85 0
-80 -85 0
85 84 86 0
-85 -86 0
-84 -86 0
86 -78 87 0
-86 -87 0
78 -87 0
-52 -39 88 0
52 -88 0
39 -88 0
34 14 89 0
-34 -89 0
-14 -89 0
89 35 90 0
-89 -90 0
-35 -90 0
-22 6 91 0
22 -91 0
-6 -91 0
22 -6 92 0
-22 -92 0
6 -92 0
92 91 93 0
-92 -93 0
-91 -93 0
-93 90 94 0
93 -94 0
-90 -94 0
93 -90 95 0
-93 -95 0
90 -95 0
95 94 96 0
-95 -96 0
-94 -96 0
96 88 97 0
-96 -97 0
-88 -97 0
-97 -87 98 0
97 -98 0
87 -98 0
-98 -70 99 0
98 -99 0
70 -99 0
99 0
